
Gurobi 7.0.2 (linux64, Matlab) logging started Sun Sep  2 08:55:58 2018


Gurobi 7.0.2 (linux64) logging started Sun Sep  2 08:55:58 2018

Optimize a model with 1441506 rows, 162402 columns and 3514014 nonzeros
Coefficient statistics:
  Matrix range     [1e+00, 1e+02]
  Objective range  [9e-06, 1e+00]
  Bounds range     [1e-03, 1e+00]
  RHS range        [2e+04, 2e+04]
Iteration    Objective       Primal Inf.    Dual Inf.      Time
       0   -1.0679233e+04   0.000000e+00   0.000000e+00      1s

Solved in 0 iterations and 0.76 seconds
Optimal objective -1.067923257e+04
